* #variable= 34 #constraint= 3 
+1 x1 -1 x18 +2 x2 -2 x19 +4 x3 -4 x20 +8 x4 -8 x21 +16 x5 -16 x22 +32 x6 -32 x23 +64 x7 -64 x24 +128 x8 -128 x25 +256 x9 -256 x26 +512 x10 -512 x27 +1024 x11 -1024 x28 +2048 x12 -2048 x29 +4096 x13 -4096 x30 +8192 x14 -8192 x31 +16384 x15 -16384 x32 +32768 x16 -32768 x33 +65536 x17 -65536 x34 = 0 ;
-1 x9 -1 x26 >= -1; 
+1 x9 +1 x26 >= 1; 
